/* Objective function */
min: +750 C1 +900 C2 +450 C3 +13000 C4 +12000 C5 +5000 C6 +900 C7 +1200 C8 +750 C9;

/* Constraints */
+C1 +12 C4 +C7 +900 C10 +450 C11 >= 300;
+C2 +12 C5 +C7 -750 C10 >= 300;
+C3 +12 C6 +C7 -750 C11 >= 300;
+C1 +15 C4 +C8 +900 C10 +450 C11 >= 360;
+C2 +15 C5 +C8 -750 C10 >= 360;
+C3 +15 C6 +C8 -750 C11 >= 360;
+C1 +20 C4 +C9 +900 C10 +450 C11 >= 420;
+C2 +20 C5 +C9 -750 C10 >= 420;
+C3 +20 C6 +C9 -750 C11 >= 420;

/* Variable bounds */
C10 >= -Inf;
C11 >= -Inf;
